clingo version 5.4.0
Reading from merger/Tarik/merge.lp ...
Solving...
Answer: 1
occurs(object(robot,1),action(move,(0,-1)),1). occurs(object(robot,1),action(move,(0,-1)),2). occurs(object(robot,1),action(move,(1,0)),3). occurs(object(robot,2),action(move,(0,-1)),1). occurs(object(robot,2),action(move,(0,-1)),2). occurs(object(robot,2),action(move,(-1,0)),3). occurs(object(robot,2),action(move,(0,-1)),4). occurs(object(robot,1),action(move,(1,0)),4). occurs(object(robot,2),action(move,(-1,0)),6). occurs(object(robot,1),action(move,(0,-1)),6).
Optimization: 3
Answer: 2
occurs(object(robot,1),action(move,(0,-1)),1). occurs(object(robot,1),action(move,(0,-1)),2). occurs(object(robot,1),action(move,(1,0)),3). occurs(object(robot,2),action(move,(0,-1)),1). occurs(object(robot,2),action(move,(0,-1)),2). occurs(object(robot,2),action(move,(-1,0)),3). occurs(object(robot,2),action(move,(0,-1)),4). occurs(object(robot,2),action(move,(-1,0)),5). occurs(object(robot,1),action(move,(1,0)),4). occurs(object(robot,1),action(move,(0,-1)),5).
Optimization: 2
OPTIMUM FOUND

Models       : 2
  Optimum    : yes
Optimization : 2
Calls        : 1
Time         : 0.063s (Solving: 0.00s 1st Model: 0.00s Unsat: 0.00s)
CPU Time     : 0.029s
